c t wmc
c file mc2023_track2_117.cnf
p cnf 120 688
-2 0
-62 0
25 0
-85 0
-50 0
110 0
83 -53 113 -23 0
-79 -19 -72 -12 0
114 -54 83 -23 0
-79 19 12 -72 0
97 37 21 81 0
81 97 -21 -37 0
-81 -97 21 37 0
-37 -21 -97 -81 0
56 116 21 81 0
81 -21 -56 116 0
-81 56 21 -116 0
-21 -81 -56 -116 0
83 -56 -23 116 0
93 -24 -33 84 0
-55 115 84 -24 0
99 -39 -24 84 0
79 -19 -12 72 0
22 82 57 117 0
-57 117 -22 82 0
-117 22 57 -82 0
-82 -57 -22 -117 0
82 22 60 120 0
-101 -41 -100 -40 0
100 40 45 105 0
100 -40 -45 105 0
-100 40 45 -105 0
-120 22 60 -82 0
-22 -82 -60 -120 0
83 82 -23 -22 0
-55 115 83 -23 0
83 -48 -23 108 0
114 -14 -54 74 0
27 87 103 43 0
-27 87 103 -43 0
27 -87 -103 43 0
-27 -87 -103 -43 0
116 27 56 87 0
87 -27 -56 116 0
27 -87 56 -116 0
-27 -87 -56 -116 0
27 87 53 113 0
-27 87 -53 113 0
27 -87 -113 53 0
-87 -27 -53 -113 0
-28 -88 -95 -35 0
-55 -29 115 89 0
55 -115 29 -89 0
54 114 86 26 0
114 -54 86 -26 0
-114 54 -86 26 0
-54 -114 -86 -26 0
36 96 86 26 0
-36 96 86 -26 0
36 -96 -86 26 0
-36 -96 -86 -26 0
38 -98 30 -90 0
-38 -98 -30 -90 0
101 41 30 90 0
101 -41 -30 90 0
-101 41 30 -90 0
-26 -86 -102 -42 0
48 108 27 87 0
-27 87 -48 108 0
48 27 -87 -108 0
-87 -27 -48 -108 0
4 52 64 112 0
-52 112 64 -4 0
52 -112 -64 4 0
-4 -52 -64 -112 0
5 65 64 4 0
65 -5 64 -4 0
-65 5 -64 4 0
-4 -65 -64 -5 0
79 19 101 41 0
-19 79 101 -41 0
-79 19 -101 41 0
-79 -19 -101 -41 0
79 19 36 96 0
79 -19 -36 96 0
-79 19 36 -96 0
-79 -19 -36 -96 0
10 -107 47 -70 0
-74 -14 -54 -114 0
109 74 49 14 0
-14 74 -49 109 0
-74 14 49 -109 0
-70 -10 -66 -6 0
59 119 70 10 0
-3 -63 -56 -116 0
4 64 58 118 0
118 64 -58 -4 0
-118 -64 58 4 0
-4 -64 -58 -118 0
4 115 64 55 0
115 -55 64 -4 0
55 -115 -64 4 0
-4 -115 -64 -55 0
79 19 22 82 0
-19 79 -22 82 0
-79 19 22 -82 0
-79 -19 -22 -82 0
79 19 97 37 0
79 -19 97 -37 0
-79 19 -97 37 0
-79 -19 -97 -37 0
-114 -74 54 14 0
-88 -28 -21 -81 0
52 112 21 81 0
81 -52 -21 112 0
-81 52 21 -112 0
-52 -112 -21 -81 0
-22 82 93 -33 0
79 19 46 106 0
-19 79 -46 106 0
-79 19 46 -106 0
-79 -19 -46 -106 0
79 19 60 120 0
-19 79 -60 120 0
-79 19 60 -120 0
-79 -19 -60 -120 0
120 -22 -60 82 0
120 -20 -60 80 0
-120 20 60 -80 0
-20 -80 -60 -120 0
-118 58 13 -73 0
-20 -28 -88 -80 0
20 80 58 118 0
118 -20 -58 80 0
-118 20 58 -80 0
-20 -80 -58 -118 0
51 111 52 112 0
-51 -111 -56 -116 0
51 -111 56 -116 0
-51 111 -56 116 0
51 111 56 116 0
-54 114 -45 105 0
-51 -111 -54 -114 0
-114 51 54 -111 0
104 44 45 105 0
104 -44 -45 105 0
-104 -44 -34 -94 0
-94 -104 34 44 0
94 104 -34 -44 0
104 44 34 94 0
-104 44 45 -105 0
120 -60 -56 116 0
-59 -119 -58 -118 0
56 116 60 120 0
-46 -106 -104 -44 0
45 105 58 118 0
118 -58 -45 105 0
-118 45 58 -105 0
-58 -118 -45 -105 0
54 114 45 105 0
-59 -119 -52 -112 0
59 -119 52 -112 0
-59 119 -52 112 0
112 59 52 119 0
-51 -111 -52 -112 0
51 -111 52 -112 0
34 94 53 113 0
-51 111 -52 112 0
-94 49 34 -109 0
-48 -108 -42 -102 0
104 44 103 43 0
94 -49 -34 109 0
49 109 34 94 0
104 -44 103 -43 0
-104 44 -103 43 0
46 106 104 44 0
-104 -44 -45 -105 0
49 109 99 39 0
-49 -109 -60 -120 0
-120 49 60 -109 0
-49 109 99 -39 0
49 109 60 120 0
120 -49 -60 109 0
-104 -44 -103 -43 0
-46 106 104 -44 0
46 -106 -104 44 0
99 39 53 113 0
113 -53 99 -39 0
-113 -99 53 39 0
-51 -111 -34 -94 0
-94 51 34 -111 0
-53 -113 -99 -39 0
-100 -40 -45 -105 0
101 41 52 112 0
101 -41 -52 112 0
-101 41 52 -112 0
-101 -41 -52 -112 0
79 19 12 72 0
94 -53 -34 113 0
-51 111 -30 90 0
-49 -109 -34 -94 0
-51 -111 -30 -90 0
57 -117 31 -91 0
-120 60 31 -91 0
-118 58 31 -91 0
-90 -30 -28 -88 0
90 30 29 89 0
-29 89 -30 90 0
30 -90 29 -89 0
-90 -29 -30 -89 0
89 103 29 43 0
103 -43 -29 89 0
-103 43 29 -89 0
-89 -103 -29 -43 0
89 29 115 55 0
-89 -115 -29 -55 0
114 -51 -54 111 0
-107 30 47 -90 0
-90 -30 -42 -102 0
38 98 30 90 0
-38 98 -30 90 0
20 80 34 94 0
94 -20 -34 80 0
-94 20 34 -80 0
-20 -80 -34 -94 0
82 20 22 80 0
-20 80 -22 82 0
20 -80 22 -82 0
-82 -20 -22 -80 0
-20 80 93 -33 0
20 80 60 120 0
-101 -41 -30 -90 0
51 111 30 90 0
51 -111 30 -90 0
-72 -12 -20 -80 0
-48 -108 -45 -105 0
46 106 53 113 0
-46 106 -53 113 0
-49 -109 -99 -39 0
46 -106 -113 53 0
-46 -106 -53 -113 0
49 -109 -99 39 0
-72 20 12 -80 0
55 -115 47 -107 0
59 119 58 118 0
-60 -120 -56 -116 0
-120 56 60 -116 0
118 -59 -58 119 0
54 -114 45 -105 0
-118 59 58 -119 0
51 111 54 114 0
-101 41 -100 40 0
101 -41 100 -40 0
101 41 100 40 0
-100 -40 -57 -117 0
-100 40 57 -117 0
100 -40 -57 117 0
100 40 57 117 0
-59 -119 -100 -40 0
59 -119 -100 40 0
-59 119 100 -40 0
40 59 100 119 0
-99 -39 -42 -102 0
-54 -114 -45 -105 0
48 108 45 105 0
108 -48 -45 105 0
48 -108 45 -105 0
-98 38 48 -108 0
-98 -38 -48 -108 0
38 98 56 116 0
-38 98 -56 116 0
38 -98 56 -116 0
-38 -98 -56 -116 0
104 44 38 98 0
-94 -113 34 53 0
-53 -113 -34 -94 0
101 41 95 35 0
101 -41 95 -35 0
-101 41 -95 35 0
-101 -41 -95 -35 0
-12 72 -20 80 0
-94 34 31 -91 0
120 -60 92 -32 0
74 14 54 114 0
57 117 71 11 0
-102 -42 -8 -68 0
78 18 9 69 0
69 78 -9 -18 0
-69 -78 9 18 0
-78 -18 -9 -69 0
9 69 29 89 0
-12 72 -14 74 0
-45 105 93 -33 0
74 14 12 72 0
51 111 34 94 0
94 -51 -34 111 0
-37 -103 -97 -43 0
38 98 48 108 0
-38 98 -48 108 0
-103 43 -97 37 0
12 -72 13 -73 0
29 -89 7 -67 0
15 -67 7 -75 0
55 -115 13 -73 0
-95 35 7 -67 0
104 -44 -38 98 0
44 -104 38 -98 0
-98 -104 -38 -44 0
109 38 49 98 0
-38 98 -49 109 0
-98 38 49 -109 0
-109 -38 -49 -98 0
-107 39 -99 47 0
-107 47 35 -95 0
20 80 12 72 0
-53 -32 92 113 0
-74 -14 -72 -12 0
103 -32 92 -43 0
-74 -72 12 14 0
99 -39 93 -33 0
55 36 -115 -96 0
-36 -96 -115 -55 0
36 96 59 119 0
-36 96 -59 119 0
36 -96 59 -119 0
-36 -96 -59 -119 0
37 54 97 114 0
114 -54 97 -37 0
-114 54 -97 37 0
-37 -54 -97 -114 0
97 37 103 43 0
-43 97 103 -37 0
74 14 34 94 0
27 -87 -73 13 0
31 -67 7 -91 0
-66 -107 47 6 0
66 6 103 43 0
-6 66 103 -43 0
6 -103 -66 43 0
-103 -43 -66 -6 0
66 6 86 26 0
-6 66 86 -26 0
6 -86 -66 26 0
-86 -26 -66 -6 0
38 98 66 6 0
-6 -38 66 98 0
6 38 -66 -98 0
-38 -98 -66 -6 0
66 6 12 72 0
-12 72 66 -6 0
6 12 -66 -72 0
-72 -12 -66 -6 0
69 -9 -57 117 0
-69 9 57 -117 0
-9 -69 -57 -117 0
9 69 12 72 0
69 -9 72 -12 0
-69 9 12 -72 0
-9 -69 -72 -12 0
46 106 9 69 0
69 -46 -9 106 0
-69 46 9 -106 0
-46 -106 -9 -69 0
69 -32 92 -9 0
46 106 61 1 0
-46 106 61 -1 0
46 -106 -61 1 0
-46 -106 -61 -1 0
46 106 70 10 0
-46 106 70 -10 0
46 -106 -70 10 0
-46 -106 -70 -10 0
12 72 70 10 0
-49 -109 -8 -68 0
94 -14 -34 74 0
-94 -74 34 14 0
-74 -14 -34 -94 0
-76 -16 -8 -68 0
-103 -43 -8 -68 0
66 6 58 118 0
118 66 -58 -6 0
-118 -66 58 6 0
-66 -6 -58 -118 0
69 -9 -29 89 0
-69 9 29 -89 0
-9 -69 -29 -89 0
9 69 57 117 0
101 41 61 1 0
101 -41 61 -1 0
-101 41 -61 1 0
-101 -41 -61 -1 0
-26 -3 -63 -86 0
-71 11 -91 31 0
-22 -3 -63 -82 0
-5 -65 -63 -3 0
-3 -63 -64 -4 0
-52 -3 -63 -112 0
77 17 95 35 0
-17 77 95 -35 0
17 -77 -95 35 0
-100 40 -64 4 0
-4 -100 -64 -40 0
-5 -65 -68 -8 0
5 27 65 87 0
-27 87 65 -5 0
27 -87 -65 5 0
-5 -87 -65 -27 0
5 65 21 81 0
81 -21 65 -5 0
-81 -65 21 5 0
-5 -21 -65 -81 0
5 104 65 44 0
-12 72 70 -10 0
-57 -117 -16 -76 0
-10 -52 70 112 0
-97 -37 -16 -76 0
106 46 77 17 0
106 -46 77 -17 0
46 -106 17 -77 0
-46 -106 -17 -77 0
51 111 17 77 0
-51 111 -17 77 0
51 -111 17 -77 0
-51 -111 -17 -77 0
17 77 57 117 0
-17 77 -57 117 0
-117 17 57 -77 0
-61 1 48 -108 0
-77 -17 -57 -117 0
61 1 21 81 0
81 61 -21 -1 0
-81 -61 21 1 0
-61 -1 -21 -81 0
100 -40 64 -4 0
4 100 64 40 0
-59 -119 -70 -10 0
-87 27 15 -75 0
59 -119 -70 10 0
17 -77 15 -75 0
-10 -59 70 119 0
-89 29 15 -75 0
-45 -105 -16 -76 0
-17 -77 -16 -76 0
104 -44 65 -5 0
-104 44 -65 5 0
-5 -104 -65 -44 0
66 6 70 10 0
-10 66 70 -6 0
6 -70 -66 10 0
1 78 61 18 0
78 -18 61 -1 0
-78 18 -61 1 0
-1 -78 -61 -18 0
-61 -1 -8 -68 0
61 1 99 39 0
61 -1 99 -39 0
-61 1 -99 39 0
-1 -61 -99 -39 0
1 61 48 108 0
61 -1 -48 108 0
78 -18 -49 109 0
-1 -61 -48 -108 0
-109 -78 -49 -18 0
40 100 78 18 0
100 -40 78 -18 0
-78 18 -100 40 0
-78 -18 -100 -40 0
51 111 78 18 0
-51 111 78 -18 0
51 -111 -78 18 0
-51 -111 -78 -18 0
-29 -89 -16 -76 0
-109 -74 -49 -14 0
104 44 74 14 0
104 -44 -14 74 0
-104 44 -74 14 0
36 96 53 113 0
40 100 74 14 0
113 -36 -53 96 0
-113 36 53 -96 0
-36 -96 -53 -113 0
37 36 97 96 0
-36 96 97 -37 0
36 -96 -97 37 0
-37 -36 -97 -96 0
36 96 115 55 0
-55 -36 115 96 0
-98 -78 38 18 0
-98 -78 -38 -18 0
36 96 78 18 0
-36 96 78 -18 0
36 -96 -78 18 0
-18 -36 -78 -96 0
109 78 49 18 0
-78 18 49 -109 0
-11 71 93 -33 0
52 112 70 10 0
119 59 71 11 0
119 -59 71 -11 0
59 -119 -71 11 0
-59 -119 -71 -11 0
-11 71 84 -24 0
-72 -12 -70 -10 0
-72 12 -70 10 0
-28 -88 -71 -11 0
26 86 71 11 0
-11 86 71 -26 0
11 -86 -71 26 0
-26 -86 -71 -11 0
-104 -44 -74 -14 0
10 52 -70 -112 0
100 -40 -14 74 0
40 -100 -74 14 0
-100 -40 -74 -14 0
74 14 48 108 0
-14 74 -48 108 0
14 -74 48 -108 0
-11 -57 71 117 0
-77 -17 -95 -35 0
-117 -57 -71 -11 0
11 57 -71 -117 0
-74 -14 -48 -108 0
21 -81 15 -75 0
-86 26 15 -75 0
-52 -112 -70 -10 0
-28 -17 -77 -88 0
18 38 78 98 0
78 -18 -38 98 0
-22 -82 -93 0
82 22 33 0
-49 109 68 0
49 -109 8 0
-43 103 68 0
43 -103 8 0
-81 21 28 0
81 -21 88 0
-39 -99 -47 0
116 56 23 0
-54 -114 -83 0
54 114 23 0
-113 -53 -83 0
-11 -71 -31 0
-26 86 63 0
-42 -102 -13 0
-52 112 63 0
52 -112 3 0
108 48 23 0
-55 -115 -83 0
118 58 73 0
55 115 23 0
-22 -82 -83 0
82 22 23 0
61 -1 68 0
-61 1 8 0
-27 -87 -13 0
13 42 -73 0
9 69 32 0
29 89 67 0
108 -48 102 0
-9 -69 -92 0
48 -108 42 0
-77 -17 -15 0
30 90 107 0
87 27 73 0
89 29 75 0
77 17 75 0
-35 -95 -7 0
-39 99 102 0
-26 -86 -15 0
39 -99 42 0
27 87 75 0
95 35 67 0
105 -45 76 0
-55 -115 -13 0
55 115 73 0
-89 -29 -15 0
-87 -27 -15 0
-90 -30 -47 0
-5 65 68 0
5 -65 8 0
-89 -29 -7 0
90 -30 102 0
-90 30 42 0
39 99 107 0
-72 -12 -13 0
20 -80 28 0
-35 -95 -47 0
20 80 33 0
80 -20 88 0
66 6 107 0
116 -56 63 0
-118 -58 -13 0
56 -116 3 0
-20 -80 -93 0
12 72 73 0
-53 -113 -92 0
39 99 24 0
97 -37 76 0
-77 17 16 0
77 -17 76 0
26 -86 42 0
-70 -10 -47 0
-117 -57 -31 0
70 10 107 0
86 26 75 0
-21 -81 -15 0
120 60 91 0
11 71 33 0
-17 77 88 0
-55 -115 -84 0
55 115 24 0
-11 -71 -84 0
99 39 33 0
-103 -43 -92 0
30 -90 28 0
-105 45 16 0
-11 71 88 0
11 -71 28 0
-115 -55 -47 0
103 43 32 0
-39 -99 -84 0
-57 117 76 0
-117 57 16 0
29 -89 16 0
86 -26 102 0
-29 89 76 0
-97 37 16 0
34 94 91 0
-99 -39 -93 0
-30 90 88 0
115 55 107 0
-86 26 3 0
-66 -6 -47 0
-22 82 63 0
22 -82 3 0
113 53 23 0
65 -5 63 0
-65 5 3 0
-48 -108 -83 0
11 71 91 0
64 -4 63 0
-64 4 3 0
17 -77 28 0
57 117 91 0
-34 -94 -31 0
-71 -11 -93 0
60 120 32 0
-35 95 88 0
95 35 107 0
21 81 75 0
45 105 33 0
-58 -118 -31 0
-95 35 28 0
-45 -105 -93 0
-120 -60 -31 0
-60 -120 -92 0
58 118 91 0
71 11 24 0
53 113 32 0
-56 -116 -83 0
3 63 0
8 42 0
68 102 0
8 68 0
8 16 0
68 76 0
16 76 0
-92 32 0
-47 107 0
-7 -31 0
91 67 0
-7 -84 0
-84 24 0
-7 67 0
-13 -84 0
73 24 0
-13 73 0
75 67 0
-7 -15 0
33 24 0
-84 -93 0
-31 91 0
42 102 0
-83 23 0
-15 75 0
-93 33 0
28 88 0
24 67 0
c p weight 29 0.56765364 0
c p weight -29 0.43234636 0
c p weight 45 0.66700274 0
c p weight -45 0.33299726 0
c p weight 71 0.45401523 0
c p weight -71 0.54598477 0
c p weight 1 1 0
c p weight -1 1 0
c p weight 2 1 0
c p weight -2 1 0
c p weight 3 1 0
c p weight -3 1 0
c p weight 4 1 0
c p weight -4 1 0
c p weight 5 1 0
c p weight -5 1 0
c p weight 6 1 0
c p weight -6 1 0
c p weight 7 1 0
c p weight -7 1 0
c p weight 8 1 0
c p weight -8 1 0
c p weight 9 1 0
c p weight -9 1 0
c p weight 10 1 0
c p weight -10 1 0
c p weight 11 1 0
c p weight -11 1 0
c p weight 12 1 0
c p weight -12 1 0
c p weight 13 1 0
c p weight -13 1 0
c p weight 14 1 0
c p weight -14 1 0
c p weight 15 1 0
c p weight -15 1 0
c p weight 16 1 0
c p weight -16 1 0
c p weight 17 1 0
c p weight -17 1 0
c p weight 18 1 0
c p weight -18 1 0
c p weight 19 1 0
c p weight -19 1 0
c p weight 20 1 0
c p weight -20 1 0
c p weight 21 1 0
c p weight -21 1 0
c p weight 22 1 0
c p weight -22 1 0
c p weight 23 1 0
c p weight -23 1 0
c p weight 24 1 0
c p weight -24 1 0
c p weight 25 1 0
c p weight -25 1 0
c p weight 26 1 0
c p weight -26 1 0
c p weight 27 1 0
c p weight -27 1 0
c p weight 28 1 0
c p weight -28 1 0
c p weight 30 1 0
c p weight -30 1 0
c p weight 31 1 0
c p weight -31 1 0
c p weight 32 1 0
c p weight -32 1 0
c p weight 33 1 0
c p weight -33 1 0
c p weight 34 1 0
c p weight -34 1 0
c p weight 35 1 0
c p weight -35 1 0
c p weight 36 1 0
c p weight -36 1 0
c p weight 37 1 0
c p weight -37 1 0
c p weight 38 1 0
c p weight -38 1 0
c p weight 39 1 0
c p weight -39 1 0
c p weight 40 1 0
c p weight -40 1 0
c p weight 41 1 0
c p weight -41 1 0
c p weight 42 1 0
c p weight -42 1 0
c p weight 43 1 0
c p weight -43 1 0
c p weight 44 1 0
c p weight -44 1 0
c p weight 46 1 0
c p weight -46 1 0
c p weight 47 1 0
c p weight -47 1 0
c p weight 48 1 0
c p weight -48 1 0
c p weight 49 1 0
c p weight -49 1 0
c p weight 50 1 0
c p weight -50 1 0
c p weight 51 1 0
c p weight -51 1 0
c p weight 52 1 0
c p weight -52 1 0
c p weight 53 1 0
c p weight -53 1 0
c p weight 54 1 0
c p weight -54 1 0
c p weight 55 1 0
c p weight -55 1 0
c p weight 56 1 0
c p weight -56 1 0
c p weight 57 1 0
c p weight -57 1 0
c p weight 58 1 0
c p weight -58 1 0
c p weight 59 1 0
c p weight -59 1 0
c p weight 60 1 0
c p weight -60 1 0
c p weight 61 1 0
c p weight -61 1 0
c p weight 62 1 0
c p weight -62 1 0
c p weight 63 1 0
c p weight -63 1 0
c p weight 64 1 0
c p weight -64 1 0
c p weight 65 1 0
c p weight -65 1 0
c p weight 66 1 0
c p weight -66 1 0
c p weight 67 1 0
c p weight -67 1 0
c p weight 68 1 0
c p weight -68 1 0
c p weight 69 1 0
c p weight -69 1 0
c p weight 70 1 0
c p weight -70 1 0
c p weight 72 1 0
c p weight -72 1 0
c p weight 73 1 0
c p weight -73 1 0
c p weight 74 1 0
c p weight -74 1 0
c p weight 75 1 0
c p weight -75 1 0
c p weight 76 1 0
c p weight -76 1 0
c p weight 77 1 0
c p weight -77 1 0
c p weight 78 1 0
c p weight -78 1 0
c p weight 79 1 0
c p weight -79 1 0
c p weight 80 1 0
c p weight -80 1 0
c p weight 81 1 0
c p weight -81 1 0
c p weight 82 1 0
c p weight -82 1 0
c p weight 83 1 0
c p weight -83 1 0
c p weight 84 1 0
c p weight -84 1 0
c p weight 85 1 0
c p weight -85 1 0
c p weight 86 1 0
c p weight -86 1 0
c p weight 87 1 0
c p weight -87 1 0
c p weight 88 1 0
c p weight -88 1 0
c p weight 89 1 0
c p weight -89 1 0
c p weight 90 1 0
c p weight -90 1 0
c p weight 91 1 0
c p weight -91 1 0
c p weight 92 1 0
c p weight -92 1 0
c p weight 93 1 0
c p weight -93 1 0
c p weight 94 1 0
c p weight -94 1 0
c p weight 95 1 0
c p weight -95 1 0
c p weight 96 1 0
c p weight -96 1 0
c p weight 97 1 0
c p weight -97 1 0
c p weight 98 1 0
c p weight -98 1 0
c p weight 99 1 0
c p weight -99 1 0
c p weight 100 1 0
c p weight -100 1 0
c p weight 101 1 0
c p weight -101 1 0
c p weight 102 1 0
c p weight -102 1 0
c p weight 103 1 0
c p weight -103 1 0
c p weight 104 1 0
c p weight -104 1 0
c p weight 105 1 0
c p weight -105 1 0
c p weight 106 1 0
c p weight -106 1 0
c p weight 107 1 0
c p weight -107 1 0
c p weight 108 1 0
c p weight -108 1 0
c p weight 109 1 0
c p weight -109 1 0
c p weight 110 1 0
c p weight -110 1 0
c p weight 111 1 0
c p weight -111 1 0
c p weight 112 1 0
c p weight -112 1 0
c p weight 113 1 0
c p weight -113 1 0
c p weight 114 1 0
c p weight -114 1 0
c p weight 115 1 0
c p weight -115 1 0
c p weight 116 1 0
c p weight -116 1 0
c p weight 117 1 0
c p weight -117 1 0
c p weight 118 1 0
c p weight -118 1 0
c p weight 119 1 0
c p weight -119 1 0
c p weight 120 1 0
c p weight -120 1 0
